BAYES
223
2 2 2 2 2 2 2 2 2 2 2 2 2 2 2 2 2 2 2 2 2 2 2 2 2 2 2 2 2 2 2 2 2 2 2 2 2 2 2 2 2 2 2 2 2 2 2 2 2 2 2 2 2 2 2 2 2 2 2 2 2 2 2 2 2 2 2 2 2 2 2 2 2 2 2 2 2 2 2 2 2 2 2 2 2 2 2 2 2 2 2 2 2 2 2 2 2 2 2 2 2 2 2 2 2 2 2 2 2 2 2 2 2 2 2 2 2 2 2 2 2 2 2 2 2 2 2 2 2 2 2 2 2 2 2 2 2 2 2 2 2 2 2 2 2 2 2 2 2 2 2 2 2 2 2 2 2 2 2 2 2 2 2 2 2 2 2 2 2 2 2 2 2 2 2 2 2 2 2 2 2 2 2 2 2 2 2 2 2 2 2 2 2 2 2 2 2 2 2 2 2 2 2 2 2 2 2 2 2 2 2 2 2 2 2 2 2 2 2 2 2 2 2 
223
1 0   # GOAL_2
1 1   # SNode_3
1 2   # SNode_4
1 3   # SNode_5
1 4   # SNode_6
1 5   # SNode_7
1 6   # DISPLACEM0
3 6 1 7   # RApp1
1 8   # GIVEN_1
2 8 9   # RApp2
3 7 9 10   # SNode_8
1 11   # SNode_9
1 12   # SNode_10
1 13   # SNode_11
1 14   # SNode_12
1 15   # SNode_13
1 16   # SNode_14
1 17   # SNode_15
1 18   # SNode_16
1 19   # SNode_17
1 20   # SNode_18
1 21   # SNode_19
1 22   # NEED1
3 18 22 23   # SNode_20
1 24   # GRAV2
3 23 24 25   # SNode_21
1 26   # VALUE3
3 25 26 27   # SNode_24
1 28   # SLIDING4
3 17 28 29   # SNode_25
1 30   # CONSTANT5
3 13 30 31   # SNode_26
1 32   # KNOWN6
1 33   # VELOCITY7
3 1 33 34   # SNode_47
4 32 31 34 35   # RApp3
1 36   # KNOWN8
3 36 13 37   # RApp4
3 35 37 38   # SNode_27
1 39   # COMPO16
3 0 39 40   # GOAL_48
1 41   # TRY12
2 41 42   # TRY11
5 3 4 40 42 43   # GOAL_49
1 44   # CHOOSE19
3 43 44 45   # GOAL_50
1 46   # SYSTEM18
4 19 45 46 47   # SNode_51
1 48   # KINEMATI17
3 47 48 49   # SNode_52
1 50   # IDENTIFY10
4 43 49 50 51   # GOAL_53
1 52   # IDENTIFY9
4 38 51 52 53   # SNode_28
2 41 54   # TRY13
2 41 55   # TRY14
2 41 56   # TRY15
1 57   # VAR20
3 53 57 58   # SNode_29
3 58 26 59   # SNode_31
1 60   # GIVEN21
3 12 60 61   # SNode_33
3 12 30 62   # SNode_34
1 63   # VECTOR27
1 64   # APPLY32
4 43 49 64 65   # GOAL_56
1 66   # CHOOSE35
3 65 66 67   # GOAL_57
1 68   # MAXIMIZE34
4 5 67 68 69   # SNode_59
1 70   # AXIS33
3 69 70 71   # SNode_60
1 72   # WRITE31
4 65 71 72 73   # GOAL_61
1 74   # WRITE30
3 73 74 75   # GOAL_62
1 76   # RESOLVE37
4 53 75 76 77   # GOAL_63
1 78   # NEED36
3 77 78 79   # SNode_64
3 11 30 80   # SNode_41
4 10 80 32 81   # SNode_42
1 82   # IDENTIFY39
4 81 51 82 83   # SNode_43
1 84   # RESOLVE38
4 83 75 84 85   # GOAL_66
3 85 78 86   # SNode_67
1 87   # IDENTIFY41
3 51 87 88   # SNode_54
1 89   # RESOLVE40
4 88 75 89 90   # GOAL_69
3 90 78 91   # SNode_70
1 92   # IDENTIFY43
4 62 51 92 93   # SNode_55
1 94   # RESOLVE42
4 93 75 94 95   # GOAL_72
3 95 78 96   # SNode_73
1 97   # KINE29
7 75 79 86 91 96 97 98   # SNode_74
1 99   # VECTOR44
5 2 95 96 99 100   # SNode_75
1 101   # EQUATION28
4 98 100 101 102   # GOAL_79
3 63 102 103   # RApp5
3 100 101 104   # GOAL_80
3 39 104 105   # RApp6
3 103 105 106   # GOAL_81
1 107   # TRY25
2 107 108   # TRY24
3 106 108 109   # GOAL_83
1 110   # CHOOSE47
3 109 110 111   # GOAL_84
1 112   # SYSTEM46
3 111 112 113   # SNode_86
1 114   # NEWTONS45
3 113 114 115   # SNode_156
1 116   # DEFINE23
4 109 115 116 117   # GOAL_98
1 118   # IDENTIFY22
3 117 118 119   # SNode_37
2 107 120   # TRY26
3 119 57 121   # SNode_38
3 121 26 122   # SNode_40
3 83 57 123   # SNode_44
3 123 26 124   # SNode_46
1 125   # NULL48
5 58 77 79 125 126   # SNode_65
4 85 86 99 127   # SNode_68
4 90 91 99 128   # SNode_71
1 129   # FIND49
4 109 115 129 130   # GOAL_87
1 131   # NORMAL50
4 29 130 131 132   # SNode_88
1 133   # STRAT_90
1 134   # NORMAL52
2 134 135   # INCLINE51
6 132 14 15 133 135 136   # SNode_91
2 134 137   # HORIZ53
2 134 138   # BUGGY54
4 14 133 138 139   # SNode_92
1 140   # IDENTIFY55
4 130 132 140 141   # SNode_93
1 142   # WEIGHT56
5 18 61 130 142 143   # SNode_94
1 144   # WEIGHT57
3 143 144 145   # SNode_95
4 130 143 140 146   # SNode_97
1 147   # FIND58
3 117 147 148   # GOAL_99
1 149   # IDENTIFY59
3 117 149 150   # SNode_100
1 151   # FORCE60
5 130 132 143 151 152   # SNode_102
1 153   # APPLY61
4 109 152 153 154   # GOAL_103
1 155   # CHOOSE62
3 154 155 156   # GOAL_104
3 156 68 157   # SNode_106
3 157 70 158   # SNode_152
1 159   # WRITE63
4 154 158 159 160   # GOAL_107
1 161   # WRITE64
3 160 161 162   # GOAL_108
3 160 161 163   # GOAL_109
1 164   # GOAL65
3 163 164 165   # GOAL_110
1 166   # GOAL66
3 163 166 167   # GOAL_111
1 168   # NEED67
3 168 163 169   # RApp7
3 78 167 170   # RApp8
3 169 170 171   # SNode_112
1 172   # GOAL68
3 165 172 173   # GOAL_113
3 165 172 174   # GOAL_114
3 174 78 175   # SNode_115
1 176   # VECTOR69
6 145 146 174 175 176 177   # SNode_116
3 173 78 178   # SNode_117
1 179   # VECTOR70
4 136 173 179 180   # SNode_118
1 181   # EQUAL71
5 141 178 180 181 182   # SNode_119
6 139 141 173 178 176 183   # SNode_120
1 184   # GOAL72
3 163 184 185   # GOAL_121
3 185 78 186   # SNode_122
1 187   # VECTOR73
6 2 150 185 186 187 188   # SNode_123
1 189   # NEWTONS74
6 119 163 171 186 189 190   # SNode_124
1 191   # SUM75
4 163 171 191 192   # SNode_125
3 162 164 193   # GOAL_126
3 162 166 194   # GOAL_127
3 168 162 195   # RApp9
3 78 194 196   # RApp10
3 195 196 197   # SNode_128
3 193 172 198   # GOAL_129
3 193 172 199   # GOAL_130
3 199 78 200   # SNode_131
6 145 146 199 200 176 201   # SNode_132
3 198 78 202   # SNode_133
6 136 141 198 202 187 203   # SNode_134
6 139 141 198 202 176 204   # SNode_135
3 185 78 205   # SNode_154
6 119 162 197 205 189 206   # SNode_136
4 162 197 191 207   # SNode_137
4 177 192 101 208   # GOAL_142
4 177 201 101 209   # GOAL_143
4 201 207 101 210   # GOAL_146
3 63 208 211   # RApp11
3 39 209 212   # RApp12
3 63 210 213   # RApp13
4 211 212 213 214   # GOAL_147
1 215   # TRY76
3 214 215 216   # GOAL_149
1 217   # APPLY77
5 23 119 216 217 218   # GOAL_150
1 219   # GRAV78
3 218 219 220   # SNode_151
3 162 184 221   # GOAL_153
6 2 150 221 205 99 222   # SNode_155


2
  0.02 0.98 

2
  0.02 0.98 

2
  0.02 0.98 

2
  0.02 0.98 

2
  0.02 0.98 

2
  0.02 0.98 

2
  0.5 0.5 

8
  1 0 
  1 0 
  1 0 
  0.0001 0.9999 

2
  0.02 0.98 

4
  1 0 
  0.0001 0.9999 

8
  0.8 0.2 
  0 1 
  0 1 
  0 1 

2
  0.02 0.98 

2
  0.02 0.98 

2
  0.02 0.98 

2
  0.02 0.98 

2
  0.02 0.98 

2
  0.02 0.98 

2
  0.02 0.98 

2
  0.02 0.98 

2
  0.02 0.98 

2
  0.02 0.98 

2
  0.02 0.98 

2
  0.5 0.5 

8
  0.8 0.2 
  0.8 0.2 
  0.8 0.2 
  8e-05 0.99992 

2
  0.5 0.5 

8
  0.8 0.2 
  0.8 0.2 
  0.8 0.2 
  8e-05 0.99992 

2
  0.5 0.5 

8
  0.9 0.1 
  0.9 0.1 
  0.9 0.1 
  9e-05 0.99991 

2
  0.1 0.9 

8
  0.9 0.1 
  0.9 0.1 
  0.9 0.1 
  9e-05 0.99991 

2
  0.5 0.5 

8
  0.8 0.2 
  0.8 0.2 
  0.8 0.2 
  8e-05 0.99992 

2
  0.5 0.5 

2
  0.5 0.5 

8
  0.8 0.2 
  0.8 0.2 
  0.8 0.2 
  8e-05 0.99992 

16
  1 0 
  1 0 
  1 0 
  1 0 
  1 0 
  1 0 
  1 0 
  0.0001 0.9999 

2
  0.5 0.5 

8
  1 0 
  1 0 
  1 0 
  0.0001 0.9999 

8
  0.8 0.2 
  0 1 
  0 1 
  0 1 

2
  0.5 0.5 

8
  0.8 0.2 
  0.8 0.2 
  0.8 0.2 
  8e-05 0.99992 

2
  0.7 0.3 

4
  0.8 0.2 
  0 1 

32
  0.8 0.2 
  0.8 0.2 
  0.8 0.2 
  0.8 0.2 
  0.8 0.2 
  0.8 0.2 
  0.8 0.2 
  0.8 0.2 
  0.8 0.2 
  0.8 0.2 
  0.8 0.2 
  0.8 0.2 
  0.8 0.2 
  0.8 0.2 
  0.8 0.2 
  8e-05 0.99992 

2
  0.5 0.5 

8
  0.8 0.2 
  0.8 0.2 
  0.8 0.2 
  8e-05 0.99992 

2
  0.5 0.5 

16
  0.9 0.1 
  0.9 0.1 
  0.9 0.1 
  0.9 0.1 
  0.9 0.1 
  0.9 0.1 
  0.9 0.1 
  9e-05 0.99991 

2
  0.5 0.5 

8
  0.8 0.2 
  0.8 0.2 
  0.8 0.2 
  8e-05 0.99992 

2
  0.5 0.5 

16
  0.8 0.2 
  0.8 0.2 
  0.8 0.2 
  0.8 0.2 
  0.8 0.2 
  0.8 0.2 
  0.8 0.2 
  8e-05 0.99992 

2
  0.5 0.5 

16
  0.8 0.2 
  0.8 0.2 
  0.8 0.2 
  0.8 0.2 
  0.8 0.2 
  0.8 0.2 
  0.8 0.2 
  8e-05 0.99992 

4
  0.8 0.2 
  0 1 

4
  0.9 0.1 
  0 1 

4
  0.9 0.1 
  0 1 

2
  0.3 0.7 

8
  0.8 0.2 
  0.8 0.2 
  0.8 0.2 
  8e-05 0.99992 

8
  0.9 0.1 
  0.9 0.1 
  0.9 0.1 
  9e-05 0.99991 

2
  0.1 0.9 

8
  0.9 0.1 
  0.9 0.1 
  0.9 0.1 
  9e-05 0.99991 

8
  0.8 0.2 
  0.8 0.2 
  0.8 0.2 
  8e-05 0.99992 

2
  0.5 0.5 

2
  0.5 0.5 

16
  0.8 0.2 
  0.8 0.2 
  0.8 0.2 
  0.8 0.2 
  0.8 0.2 
  0.8 0.2 
  0.8 0.2 
  8e-05 0.99992 

2
  0.5 0.5 

8
  0.8 0.2 
  0.8 0.2 
  0.8 0.2 
  8e-05 0.99992 

2
  0.5 0.5 

16
  0.8 0.2 
  0.8 0.2 
  0.8 0.2 
  0.8 0.2 
  0.8 0.2 
  0.8 0.2 
  0.8 0.2 
  8e-05 0.99992 

2
  0.2 0.8 

8
  0.8 0.2 
  0.8 0.2 
  0.8 0.2 
  8e-05 0.99992 

2
  0.5 0.5 

16
  0.8 0.2 
  0.8 0.2 
  0.8 0.2 
  0.8 0.2 
  0.8 0.2 
  0.8 0.2 
  0.8 0.2 
  8e-05 0.99992 

2
  0.5 0.5 

8
  0.8 0.2 
  0.8 0.2 
  0.8 0.2 
  8e-05 0.99992 

2
  0.5 0.5 

16
  0.8 0.2 
  0.8 0.2 
  0.8 0.2 
  0.8 0.2 
  0.8 0.2 
  0.8 0.2 
  0.8 0.2 
  8e-05 0.99992 

2
  0.5 0.5 

8
  0.8 0.2 
  0.8 0.2 
  0.8 0.2 
  8e-05 0.99992 

8
  0.8 0.2 
  0.8 0.2 
  0.8 0.2 
  8e-05 0.99992 

16
  0.8 0.2 
  0.8 0.2 
  0.8 0.2 
  0.8 0.2 
  0.8 0.2 
  0.8 0.2 
  0.8 0.2 
  8e-05 0.99992 

2
  0.5 0.5 

16
  0.8 0.2 
  0.8 0.2 
  0.8 0.2 
  0.8 0.2 
  0.8 0.2 
  0.8 0.2 
  0.8 0.2 
  8e-05 0.99992 

2
  0.5 0.5 

16
  0.8 0.2 
  0.8 0.2 
  0.8 0.2 
  0.8 0.2 
  0.8 0.2 
  0.8 0.2 
  0.8 0.2 
  8e-05 0.99992 

8
  0.8 0.2 
  0.8 0.2 
  0.8 0.2 
  8e-05 0.99992 

2
  0.5 0.5 

8
  0.8 0.2 
  0.8 0.2 
  0.8 0.2 
  8e-05 0.99992 

2
  0.5 0.5 

16
  0.8 0.2 
  0.8 0.2 
  0.8 0.2 
  0.8 0.2 
  0.8 0.2 
  0.8 0.2 
  0.8 0.2 
  8e-05 0.99992 

8
  0.8 0.2 
  0.8 0.2 
  0.8 0.2 
  8e-05 0.99992 

2
  0.6 0.4 

16
  0.8 0.2 
  0.8 0.2 
  0.8 0.2 
  0.8 0.2 
  0.8 0.2 
  0.8 0.2 
  0.8 0.2 
  8e-05 0.99992 

2
  0.5 0.5 

16
  0.8 0.2 
  0.8 0.2 
  0.8 0.2 
  0.8 0.2 
  0.8 0.2 
  0.8 0.2 
  0.8 0.2 
  8e-05 0.99992 

8
  0.8 0.2 
  0.8 0.2 
  0.8 0.2 
  8e-05 0.99992 

2
  0.5 0.5 

128
  0.9 0.1 
  0.9 0.1 
  0.9 0.1 
  0.9 0.1 
  0.9 0.1 
  0.9 0.1 
  0.9 0.1 
  0.9 0.1 
  0.9 0.1 
  0.9 0.1 
  0.9 0.1 
  0.9 0.1 
  0.9 0.1 
  0.9 0.1 
  0.9 0.1 
  0.9 0.1 
  0.9 0.1 
  0.9 0.1 
  0.9 0.1 
  0.9 0.1 
  0.9 0.1 
  0.9 0.1 
  0.9 0.1 
  0.9 0.1 
  0.9 0.1 
  0.9 0.1 
  0.9 0.1 
  0.9 0.1 
  0.9 0.1 
  0.9 0.1 
  0.9 0.1 
  0.9 0.1 
  0.9 0.1 
  0.9 0.1 
  0.9 0.1 
  0.9 0.1 
  0.9 0.1 
  0.9 0.1 
  0.9 0.1 
  0.9 0.1 
  0.9 0.1 
  0.9 0.1 
  0.9 0.1 
  0.9 0.1 
  0.9 0.1 
  0.9 0.1 
  0.9 0.1 
  0.9 0.1 
  0.9 0.1 
  0.9 0.1 
  0.9 0.1 
  0.9 0.1 
  0.9 0.1 
  0.9 0.1 
  0.9 0.1 
  0.9 0.1 
  0.9 0.1 
  0.9 0.1 
  0.9 0.1 
  0.9 0.1 
  0.9 0.1 
  0.9 0.1 
  0.9 0.1 
  9e-05 0.99991 

2
  0.5 0.5 

32
  0.9 0.1 
  0.9 0.1 
  0.9 0.1 
  0.9 0.1 
  0.9 0.1 
  0.9 0.1 
  0.9 0.1 
  0.9 0.1 
  0.9 0.1 
  0.9 0.1 
  0.9 0.1 
  0.9 0.1 
  0.9 0.1 
  0.9 0.1 
  0.9 0.1 
  9e-05 0.99991 

2
  0.6 0.4 

16
  0.8 0.2 
  0.8 0.2 
  0.8 0.2 
  0.8 0.2 
  0.8 0.2 
  0.8 0.2 
  0.8 0.2 
  8e-05 0.99992 

8
  1 0 
  1 0 
  1 0 
  0.0001 0.9999 

8
  0.8 0.2 
  0.8 0.2 
  0.8 0.2 
  8e-05 0.99992 

8
  1 0 
  1 0 
  1 0 
  0.0001 0.9999 

8
  0.8 0.2 
  0 1 
  0 1 
  0 1 

2
  0.1 0.9 

4
  0.95 0.05 
  0 1 

8
  0.8 0.2 
  0.8 0.2 
  0.8 0.2 
  8e-05 0.99992 

2
  0.5 0.5 

8
  0.8 0.2 
  0.8 0.2 
  0.8 0.2 
  8e-05 0.99992 

2
  0.5 0.5 

8
  0.9 0.1 
  0.9 0.1 
  0.9 0.1 
  9e-05 0.99991 

2
  0.5 0.5 

8
  0.8 0.2 
  0.8 0.2 
  0.8 0.2 
  8e-05 0.99992 

2
  0.5 0.5 

16
  0.8 0.2 
  0.8 0.2 
  0.8 0.2 
  0.8 0.2 
  0.8 0.2 
  0.8 0.2 
  0.8 0.2 
  8e-05 0.99992 

2
  0.5 0.5 

8
  0.8 0.2 
  0.8 0.2 
  0.8 0.2 
  8e-05 0.99992 

4
  0.9 0.1 
  0 1 

8
  0.8 0.2 
  0.8 0.2 
  0.8 0.2 
  8e-05 0.99992 

8
  0.9 0.1 
  0.9 0.1 
  0.9 0.1 
  9e-05 0.99991 

8
  0.8 0.2 
  0.8 0.2 
  0.8 0.2 
  8e-05 0.99992 

8
  0.9 0.1 
  0.9 0.1 
  0.9 0.1 
  9e-05 0.99991 

2
  0.5 0.5 

32
  0.9 0.1 
  0.9 0.1 
  0.9 0.1 
  0.9 0.1 
  0.9 0.1 
  0.9 0.1 
  0.9 0.1 
  0.9 0.1 
  0.9 0.1 
  0.9 0.1 
  0.9 0.1 
  0.9 0.1 
  0.9 0.1 
  0.9 0.1 
  0.9 0.1 
  9e-05 0.99991 

16
  0.9 0.1 
  0.9 0.1 
  0.9 0.1 
  0.9 0.1 
  0.9 0.1 
  0.9 0.1 
  0.9 0.1 
  9e-05 0.99991 

16
  0.9 0.1 
  0.9 0.1 
  0.9 0.1 
  0.9 0.1 
  0.9 0.1 
  0.9 0.1 
  0.9 0.1 
  9e-05 0.99991 

2
  0.5 0.5 

16
  0.7 0.3 
  0.7 0.3 
  0.7 0.3 
  0.7 0.3 
  0.7 0.3 
  0.7 0.3 
  0.7 0.3 
  7e-05 0.99993 

2
  0.5 0.5 

16
  0.9 0.1 
  0.9 0.1 
  0.9 0.1 
  0.9 0.1 
  0.9 0.1 
  0.9 0.1 
  0.9 0.1 
  9e-05 0.99991 

2
  0.5 0.5 

2
  0.646 0.354 

4
  1 0 
  0 1 

64
  0.8 0.2 
  0.8 0.2 
  0.8 0.2 
  0.8 0.2 
  0.8 0.2 
  0.8 0.2 
  0.8 0.2 
  0.8 0.2 
  0.8 0.2 
  0.8 0.2 
  0.8 0.2 
  0.8 0.2 
  0.8 0.2 
  0.8 0.2 
  0.8 0.2 
  0.8 0.2 
  0.8 0.2 
  0.8 0.2 
  0.8 0.2 
  0.8 0.2 
  0.8 0.2 
  0.8 0.2 
  0.8 0.2 
  0.8 0.2 
  0.8 0.2 
  0.8 0.2 
  0.8 0.2 
  0.8 0.2 
  0.8 0.2 
  0.8 0.2 
  0.8 0.2 
  8e-05 0.99992 

4
  0.8 0.2 
  0 1 

4
  0.2 0.8 
  1 0 

16
  0.8 0.2 
  0.8 0.2 
  0.8 0.2 
  0.8 0.2 
  0.8 0.2 
  8e-05 0.99992 
  0.8 0.2 
  0.8 0.2 

2
  0.5 0.5 

16
  0.8 0.2 
  0.8 0.2 
  0.8 0.2 
  0.8 0.2 
  0.8 0.2 
  0.8 0.2 
  0.8 0.2 
  8e-05 0.99992 

2
  0.3 0.7 

32
  0.9 0.1 
  0.9 0.1 
  0.9 0.1 
  0.9 0.1 
  0.9 0.1 
  0.9 0.1 
  0.9 0.1 
  0.9 0.1 
  0.9 0.1 
  0.9 0.1 
  0.9 0.1 
  0.9 0.1 
  0.9 0.1 
  0.9 0.1 
  0.9 0.1 
  9e-05 0.99991 

2
  0.3 0.7 

8
  0.8 0.2 
  0.8 0.2 
  0.8 0.2 
  8e-05 0.99992 

16
  0.8 0.2 
  0.8 0.2 
  0.8 0.2 
  0.8 0.2 
  0.8 0.2 
  0.8 0.2 
  0.8 0.2 
  8e-05 0.99992 

2
  0.7 0.3 

8
  0.8 0.2 
  0.8 0.2 
  0.8 0.2 
  8e-05 0.99992 

2
  0.5 0.5 

8
  0.8 0.2 
  0.8 0.2 
  0.8 0.2 
  8e-05 0.99992 

2
  0.2 0.8 

32
  0.9 0.1 
  0.9 0.1 
  0.9 0.1 
  0.9 0.1 
  0.9 0.1 
  0.9 0.1 
  0.9 0.1 
  0.9 0.1 
  0.9 0.1 
  0.9 0.1 
  0.9 0.1 
  0.9 0.1 
  0.9 0.1 
  0.9 0.1 
  0.9 0.1 
  9e-05 0.99991 

2
  0.5 0.5 

16
  0.8 0.2 
  0.8 0.2 
  0.8 0.2 
  0.8 0.2 
  0.8 0.2 
  0.8 0.2 
  0.8 0.2 
  8e-05 0.99992 

2
  0.5 0.5 

8
  0.8 0.2 
  0.8 0.2 
  0.8 0.2 
  8e-05 0.99992 

8
  0.8 0.2 
  0.8 0.2 
  0.8 0.2 
  8e-05 0.99992 

8
  0.8 0.2 
  0.8 0.2 
  0.8 0.2 
  8e-05 0.99992 

2
  0.5 0.5 

16
  0.8 0.2 
  0.8 0.2 
  0.8 0.2 
  0.8 0.2 
  0.8 0.2 
  0.8 0.2 
  0.8 0.2 
  8e-05 0.99992 

2
  0.5 0.5 

8
  0.8 0.2 
  0.8 0.2 
  0.8 0.2 
  8e-05 0.99992 

8
  0.8 0.2 
  0.8 0.2 
  0.8 0.2 
  8e-05 0.99992 

2
  0.5 0.5 

8
  0.8 0.2 
  0.8 0.2 
  0.8 0.2 
  8e-05 0.99992 

2
  0.6 0.4 

8
  0.8 0.2 
  0.8 0.2 
  0.8 0.2 
  8e-05 0.99992 

2
  0.5 0.5 

8
  1 0 
  1 0 
  1 0 
  0.0001 0.9999 

8
  1 0 
  1 0 
  1 0 
  0.0001 0.9999 

8
  0.8 0.2 
  0 1 
  0 1 
  0 1 

2
  0.5 0.5 

8
  0.8 0.2 
  0.8 0.2 
  0.8 0.2 
  8e-05 0.99992 

8
  0.8 0.2 
  0.8 0.2 
  0.8 0.2 
  8e-05 0.99992 

8
  0.8 0.2 
  0.8 0.2 
  0.8 0.2 
  8e-05 0.99992 

2
  0.7 0.3 

64
  0.9 0.1 
  0.9 0.1 
  0.9 0.1 
  0.9 0.1 
  0.9 0.1 
  0.9 0.1 
  0.9 0.1 
  0.9 0.1 
  0.9 0.1 
  0.9 0.1 
  0.9 0.1 
  0.9 0.1 
  0.9 0.1 
  0.9 0.1 
  0.9 0.1 
  0.9 0.1 
  0.9 0.1 
  0.9 0.1 
  0.9 0.1 
  0.9 0.1 
  0.9 0.1 
  0.9 0.1 
  0.9 0.1 
  0.9 0.1 
  0.9 0.1 
  0.9 0.1 
  0.9 0.1 
  0.9 0.1 
  0.9 0.1 
  0.9 0.1 
  0.9 0.1 
  9e-05 0.99991 

8
  0.8 0.2 
  0.8 0.2 
  0.8 0.2 
  8e-05 0.99992 

2
  0.1 0.9 

16
  0.8 0.2 
  0.8 0.2 
  0.8 0.2 
  0.8 0.2 
  0.8 0.2 
  0.8 0.2 
  0.8 0.2 
  8e-05 0.99992 

2
  0.4 0.6 

32
  0.9 0.1 
  0.9 0.1 
  0.9 0.1 
  0.9 0.1 
  0.9 0.1 
  0.9 0.1 
  0.9 0.1 
  0.9 0.1 
  0.9 0.1 
  0.9 0.1 
  0.9 0.1 
  0.9 0.1 
  0.9 0.1 
  0.9 0.1 
  0.9 0.1 
  9e-05 0.99991 

64
  0.9 0.1 
  0.9 0.1 
  0.9 0.1 
  0.9 0.1 
  0.9 0.1 
  0.9 0.1 
  0.9 0.1 
  0.9 0.1 
  0.9 0.1 
  0.9 0.1 
  0.9 0.1 
  0.9 0.1 
  0.9 0.1 
  0.9 0.1 
  0.9 0.1 
  0.9 0.1 
  0.9 0.1 
  0.9 0.1 
  0.9 0.1 
  0.9 0.1 
  0.9 0.1 
  0.9 0.1 
  0.9 0.1 
  0.9 0.1 
  0.9 0.1 
  0.9 0.1 
  0.9 0.1 
  0.9 0.1 
  0.9 0.1 
  0.9 0.1 
  0.9 0.1 
  9e-05 0.99991 

2
  0.5 0.5 

8
  0.8 0.2 
  0.8 0.2 
  0.8 0.2 
  8e-05 0.99992 

8
  0.8 0.2 
  0.8 0.2 
  0.8 0.2 
  8e-05 0.99992 

2
  0.5 0.5 

64
  0.9 0.1 
  0.9 0.1 
  0.9 0.1 
  0.9 0.1 
  0.9 0.1 
  0.9 0.1 
  0.9 0.1 
  0.9 0.1 
  0.9 0.1 
  0.9 0.1 
  0.9 0.1 
  0.9 0.1 
  0.9 0.1 
  0.9 0.1 
  0.9 0.1 
  0.9 0.1 
  0.9 0.1 
  0.9 0.1 
  0.9 0.1 
  0.9 0.1 
  0.9 0.1 
  0.9 0.1 
  0.9 0.1 
  0.9 0.1 
  0.9 0.1 
  0.9 0.1 
  0.9 0.1 
  0.9 0.1 
  0.9 0.1 
  0.9 0.1 
  0.9 0.1 
  9e-05 0.99991 

2
  0.5 0.5 

64
  0.9 0.1 
  0.9 0.1 
  0.9 0.1 
  0.9 0.1 
  0.9 0.1 
  0.9 0.1 
  0.9 0.1 
  0.9 0.1 
  0.9 0.1 
  0.9 0.1 
  0.9 0.1 
  0.9 0.1 
  0.9 0.1 
  0.9 0.1 
  0.9 0.1 
  0.9 0.1 
  0.9 0.1 
  0.9 0.1 
  0.9 0.1 
  0.9 0.1 
  0.9 0.1 
  0.9 0.1 
  0.9 0.1 
  0.9 0.1 
  0.9 0.1 
  0.9 0.1 
  0.9 0.1 
  0.9 0.1 
  0.9 0.1 
  0.9 0.1 
  0.9 0.1 
  9e-05 0.99991 

2
  0.5 0.5 

16
  0.9 0.1 
  0.9 0.1 
  0.9 0.1 
  0.9 0.1 
  0.9 0.1 
  0.9 0.1 
  0.9 0.1 
  9e-05 0.99991 

8
  0.8 0.2 
  0.8 0.2 
  0.8 0.2 
  8e-05 0.99992 

8
  0.8 0.2 
  0.8 0.2 
  0.8 0.2 
  8e-05 0.99992 

8
  1 0 
  1 0 
  1 0 
  0.0001 0.9999 

8
  1 0 
  1 0 
  1 0 
  0.0001 0.9999 

8
  0.8 0.2 
  0 1 
  0 1 
  0 1 

8
  0.8 0.2 
  0.8 0.2 
  0.8 0.2 
  8e-05 0.99992 

8
  0.8 0.2 
  0.8 0.2 
  0.8 0.2 
  8e-05 0.99992 

8
  0.8 0.2 
  0.8 0.2 
  0.8 0.2 
  8e-05 0.99992 

64
  0.9 0.1 
  0.9 0.1 
  0.9 0.1 
  0.9 0.1 
  0.9 0.1 
  0.9 0.1 
  0.9 0.1 
  0.9 0.1 
  0.9 0.1 
  0.9 0.1 
  0.9 0.1 
  0.9 0.1 
  0.9 0.1 
  0.9 0.1 
  0.9 0.1 
  0.9 0.1 
  0.9 0.1 
  0.9 0.1 
  0.9 0.1 
  0.9 0.1 
  0.9 0.1 
  0.9 0.1 
  0.9 0.1 
  0.9 0.1 
  0.9 0.1 
  0.9 0.1 
  0.9 0.1 
  0.9 0.1 
  0.9 0.1 
  0.9 0.1 
  0.9 0.1 
  9e-05 0.99991 

8
  0.8 0.2 
  0.8 0.2 
  0.8 0.2 
  8e-05 0.99992 

64
  0.9 0.1 
  0.9 0.1 
  0.9 0.1 
  0.9 0.1 
  0.9 0.1 
  0.9 0.1 
  0.9 0.1 
  0.9 0.1 
  0.9 0.1 
  0.9 0.1 
  0.9 0.1 
  0.9 0.1 
  0.9 0.1 
  0.9 0.1 
  0.9 0.1 
  0.9 0.1 
  0.9 0.1 
  0.9 0.1 
  0.9 0.1 
  0.9 0.1 
  0.9 0.1 
  0.9 0.1 
  0.9 0.1 
  0.9 0.1 
  0.9 0.1 
  0.9 0.1 
  0.9 0.1 
  0.9 0.1 
  0.9 0.1 
  0.9 0.1 
  0.9 0.1 
  9e-05 0.99991 

64
  0.9 0.1 
  0.9 0.1 
  0.9 0.1 
  0.9 0.1 
  0.9 0.1 
  0.9 0.1 
  0.9 0.1 
  0.9 0.1 
  0.9 0.1 
  0.9 0.1 
  0.9 0.1 
  0.9 0.1 
  0.9 0.1 
  0.9 0.1 
  0.9 0.1 
  0.9 0.1 
  0.9 0.1 
  0.9 0.1 
  0.9 0.1 
  0.9 0.1 
  0.9 0.1 
  0.9 0.1 
  0.9 0.1 
  0.9 0.1 
  0.9 0.1 
  0.9 0.1 
  0.9 0.1 
  0.9 0.1 
  0.9 0.1 
  0.9 0.1 
  0.9 0.1 
  9e-05 0.99991 

8
  0.8 0.2 
  0.8 0.2 
  0.8 0.2 
  8e-05 0.99992 

64
  0.9 0.1 
  0.9 0.1 
  0.9 0.1 
  0.9 0.1 
  0.9 0.1 
  0.9 0.1 
  0.9 0.1 
  0.9 0.1 
  0.9 0.1 
  0.9 0.1 
  0.9 0.1 
  0.9 0.1 
  0.9 0.1 
  0.9 0.1 
  0.9 0.1 
  0.9 0.1 
  0.9 0.1 
  0.9 0.1 
  0.9 0.1 
  0.9 0.1 
  0.9 0.1 
  0.9 0.1 
  0.9 0.1 
  0.9 0.1 
  0.9 0.1 
  0.9 0.1 
  0.9 0.1 
  0.9 0.1 
  0.9 0.1 
  0.9 0.1 
  0.9 0.1 
  9e-05 0.99991 

16
  0.9 0.1 
  0.9 0.1 
  0.9 0.1 
  0.9 0.1 
  0.9 0.1 
  0.9 0.1 
  0.9 0.1 
  9e-05 0.99991 

16
  0.8 0.2 
  0.8 0.2 
  0.8 0.2 
  0.8 0.2 
  0.8 0.2 
  0.8 0.2 
  0.8 0.2 
  8e-05 0.99992 

16
  0.8 0.2 
  0.8 0.2 
  0.8 0.2 
  0.8 0.2 
  0.8 0.2 
  0.8 0.2 
  0.8 0.2 
  8e-05 0.99992 

16
  0.8 0.2 
  0.8 0.2 
  0.8 0.2 
  0.8 0.2 
  0.8 0.2 
  0.8 0.2 
  0.8 0.2 
  8e-05 0.99992 

8
  1 0 
  1 0 
  1 0 
  0.0001 0.9999 

8
  1 0 
  1 0 
  1 0 
  0.0001 0.9999 

8
  1 0 
  1 0 
  1 0 
  0.0001 0.9999 

16
  0.8 0.2 
  0 1 
  0 1 
  0 1 
  0 1 
  0 1 
  0 1 
  0 1 

2
  0.5 0.5 

8
  0.7 0.3 
  0.7 0.3 
  0.7 0.3 
  7e-05 0.99993 

2
  0.5 0.5 

32
  0.8 0.2 
  0.8 0.2 
  0.8 0.2 
  0.8 0.2 
  0.8 0.2 
  0.8 0.2 
  0.8 0.2 
  0.8 0.2 
  0.8 0.2 
  0.8 0.2 
  0.8 0.2 
  0.8 0.2 
  0.8 0.2 
  0.8 0.2 
  0.8 0.2 
  8e-05 0.99992 

2
  0.5 0.5 

8
  0.9 0.1 
  0.9 0.1 
  0.9 0.1 
  9e-05 0.99991 

8
  0.8 0.2 
  0.8 0.2 
  0.8 0.2 
  8e-05 0.99992 

64
  0.9 0.1 
  0.9 0.1 
  0.9 0.1 
  0.9 0.1 
  0.9 0.1 
  0.9 0.1 
  0.9 0.1 
  0.9 0.1 
  0.9 0.1 
  0.9 0.1 
  0.9 0.1 
  0.9 0.1 
  0.9 0.1 
  0.9 0.1 
  0.9 0.1 
  0.9 0.1 
  0.9 0.1 
  0.9 0.1 
  0.9 0.1 
  0.9 0.1 
  0.9 0.1 
  0.9 0.1 
  0.9 0.1 
  0.9 0.1 
  0.9 0.1 
  0.9 0.1 
  0.9 0.1 
  0.9 0.1 
  0.9 0.1 
  0.9 0.1 
  0.9 0.1 
  9e-05 0.99991 


